NAME 
ROWS
 N  OBJ
 L  R0      
 L  R1      
 L  R2      
 E  R3      
 E  R4      
 E  R5      
 E  R6      
 E  R7      
 E  R8      
 E  R9      
 E  R10     
 E  R11     
 E  R12     
COLUMNS
    MARKER    'MARKER'                 'INTORG'
    I0(8)     OBJ       -62
    I0(8)     R0        -12
    I0(8)     R1        -98
    I0(8)     R2        187
    I0(8)     R5        14
    I0(8)     R6        6
    I0(8)     R7        14
    I0(8)     R8        -1
    I0(8)     R12       1
    I1(7)     OBJ       195
    I1(7)     R0        -11
    I1(7)     R1        -117
    I1(7)     R2        123
    I1(7)     R4        18
    I1(7)     R5        12
    I1(7)     R7        5
    I1(7)     R12       1
    I2(7)     OBJ       -24
    I2(7)     R0        -27
    I2(7)     R1        -174
    I2(7)     R2        -86
    I2(7)     R4        11
    I2(7)     R5        14
    I2(7)     R6        6
    I2(7)     R12       1
    I3(9)     OBJ       190
    I3(9)     R0        52
    I3(9)     R1        -158
    I3(9)     R2        119
    I3(9)     R4        7
    I3(9)     R5        4
    I3(9)     R6        14
    I3(9)     R7        2
    I3(9)     R8        8
    I3(9)     R12       1
    I4(6)     OBJ       37
    I4(6)     R0        122
    I4(6)     R1        66
    I4(6)     R2        -75
    I4(6)     R3        8
    I4(6)     R6        6
    I4(6)     R12       1
    I5(9)     OBJ       -141
    I5(9)     R0        -155
    I5(9)     R1        191
    I5(9)     R2        84
    I5(9)     R3        9
    I5(9)     R4        11
    I5(9)     R5        10
    I5(9)     R6        3
    I5(9)     R8        10
    I5(9)     R12       1
    MARKER    'MARKER'                 'INTEND'
    C6(9)     R0        -8
    C6(9)     R1        -4
    C6(9)     R2        9
    C6(9)     R3        13
    C6(9)     R5        17
    C6(9)     R8        11
    C6(9)     R9        18
    C6(9)     R10       3
    C6(9)     R11       12
    C7(7)     OBJ       -8
    C7(7)     R0        8
    C7(7)     R2        -9
    C7(7)     R5        -1
    C7(7)     R7        -1
    C7(7)     R8        4
    C7(7)     R9        14
    C7(7)     R10       16
    C8(6)     OBJ       -2
    C8(6)     R0        -2
    C8(6)     R1        -3
    C8(6)     R2        -6
    C8(6)     R3        10
    C8(6)     R10       4
    C8(6)     R11       10
    C9(11)    OBJ       2
    C9(11)    R0        6
    C9(11)    R1        -8
    C9(11)    R2        -4
    C9(11)    R3        5
    C9(11)    R4        1
    C9(11)    R5        14
    C9(11)    R6        -1
    C9(11)    R7        9
    C9(11)    R8        8
    C9(11)    R10       2
    C9(11)    R11       10
    C10(1)    R3        1
    C11(1)    R4        1
    C12(1)    R5        1
    C13(1)    R6        1
    C14(1)    R7        1
    C15(1)    R8        1
    C16(1)    R9        1
    C17(1)    R10       1
    C18(1)    R11       1
    C19(1)    R12       1
RHS
    RHS1      R0        -1.5300000000000003e+02
    RHS1      R1        78
    RHS1      R2        2.1400000000000006e+02
    RHS1      R3        59
    RHS1      R4        66
    RHS1      R5        54
    RHS1      R6        56
    RHS1      R7        82
    RHS1      R8        81
    RHS1      R9        52
    RHS1      R10       68
    RHS1      R11       56
    RHS1      R12       2
BOUNDS
 UP BND1      I0(8)     1
 UP BND1      I1(7)     1
 UP BND1      I2(7)     1
 UP BND1      I3(9)     1
 UP BND1      I4(6)     1
 UP BND1      I5(9)     1
ENDATA
